5 5
1 34 3 58 0 85 4 7 2 25
1 57 3 12 4 31 0 27 2 86
3 34 1 81 4 75 0 93 2 34
1 37 0 58 3 60 2 26 4 45
1 45 2 32 0 69 3 84 4 71
-1
0 2 4 5
0 1 2 4 5
0 1 3 4 5
0 3 5
0 1 3 5
-2
113 195 258
72 75 166 332
47 298 346 375
175 289
47 227 458

456 10
16 22 8 2 13
15 20 5 0 11
21 18 9 4 14
10 17 6 1 23
7 19 12 3 24
